
List of user-set options:

                                    Name   Value                used
                           compl_inf_tol = 1                     yes
                         constr_viol_tol = 1                     yes
                            dual_inf_tol = 1000                  yes
                           linear_solver = ma97                  yes
                              ma86_small = 1e-30                  no
                                  ma86_u = 0.0001                 no
                              ma97_order = best                  yes
                              ma97_small = 1e-30                 yes
                            ma97_switch1 = at_start              yes
                            ma97_switch2 = od_hd_reuse           yes
                                  ma97_u = 1e-06                 yes
                               ma97_umax = 0.5                   yes
                                max_iter = 1000                  yes
                    max_refinement_steps = 20                    yes
                    min_refinement_steps = 5                     yes
                                 mu_init = 1e-06                 yes
           mu_superlinear_decrease_power = 1.25                  yes
                   nlp_scaling_min_value = 1e-08                 yes
                        option_file_name = Preset_Case_523_pf.opt  yes
                             output_file = ./tmp/Preset_Case_523_pf.output  yes
                      print_user_options = yes                   yes
        required_infeasibility_reduction = 1                      no
                                     tol = 1e-08                 yes
                   warm_start_bound_frac = 1e-20                 yes
                   warm_start_bound_push = 1e-20                 yes
                   warm_start_init_point = yes                   yes
              warm_start_mult_bound_push = 1e-20                 yes
                warm_start_mult_init_max = 1e+40                 yes
             warm_start_slack_bound_frac = 1e-20                 yes
             warm_start_slack_bound_push = 1e-20                 yes

******************************************************************************
This program contains Ipopt, a library for large-scale nonlinear optimization.
 Ipopt is released as open source code under the Eclipse Public License (EPL).
         For more information visit http://projects.coin-or.org/Ipopt
******************************************************************************

This is Ipopt version 3.12.10, running with linear solver ma97.

Number of nonzeros in equality constraint Jacobian...:   123443
Number of nonzeros in inequality constraint Jacobian.:      213
Number of nonzeros in Lagrangian Hessian.............:    49069

Total number of variables............................:    31591
                     variables with only lower bounds:    12912
                variables with lower and upper bounds:    15130
                     variables with only upper bounds:        0
Total number of equality constraints.................:    31483
Total number of inequality constraints...............:       25
        inequality constraints with only lower bounds:        4
   inequality constraints with lower and upper bounds:        0
        inequality constraints with only upper bounds:       21

iter    objective    inf_pr   inf_du lg(mu)  ||d||  lg(rg) alpha_du alpha_pr  ls
   0 -5.3177913e+00 5.39e-03 1.02e+00  -6.0 0.00e+00    -  0.00e+00 0.00e+00   0
   1 -5.3173595e+00 5.97e+00 2.73e+01  -6.0 4.22e+05    -  7.54e-05 8.93e-04h  1
   2 -5.3177111e+00 5.97e+00 7.50e+01  -6.0 5.81e+03    -  1.97e-01 6.75e-04f  1
   3 -5.3177009e+00 5.97e+00 6.66e+01  -6.0 2.66e+05    -  2.31e-09 3.06e-06h 12
   4r-5.3177009e+00 5.97e+00 9.99e+02   0.8 0.00e+00  -4.0 0.00e+00 4.05e-07R  2
   5r-5.3187744e+00 5.97e+00 9.99e+02   0.8 1.01e+05    -  2.85e-07 3.42e-08f  1
   6 -5.3186599e+00 5.97e+00 2.99e+02  -6.0 4.12e+02    -  1.31e-06 3.91e-04h  1
   7 -5.3185463e+00 5.97e+00 1.24e+04  -6.0 1.33e+03    -  4.13e-06 7.25e-05h  1
   8 -5.3183590e+00 5.96e+00 1.18e+04  -6.0 4.54e+02    -  7.45e-04 4.07e-04h  1
   9 -5.3124398e+00 5.92e+00 2.18e+04  -6.0 2.78e+02    -  3.46e-04 7.22e-03h  2
iter    objective    inf_pr   inf_du lg(mu)  ||d||  lg(rg) alpha_du alpha_pr  ls
  10 -5.3113335e+00 5.91e+00 1.91e+04  -6.0 2.80e+02    -  3.53e-03 1.40e-03h  2
  11 -5.3108246e+00 5.91e+00 9.81e+03  -6.0 2.62e+02    -  9.02e-03 4.54e-04h  6
  12 -5.3106557e+00 5.91e+00 9.36e+03  -6.0 2.67e+02    -  6.14e-04 1.64e-04h  9
  13 -5.3106432e+00 5.91e+00 8.38e+03  -6.0 2.63e+02    -  1.80e-02 1.13e-05h 13
  14 -5.2151675e+00 5.39e+00 6.85e+04  -6.0 2.64e+02    -  6.51e-04 8.74e-02h  1
  15 -5.1466099e+00 5.01e+00 1.29e+05  -6.0 2.47e+02    -  6.07e-03 7.07e-02h  1
  16 -5.0686311e+00 4.57e+00 1.33e+05  -6.0 2.33e+02    -  7.45e-02 8.93e-02h  1
  17 -4.8579983e+00 3.33e+00 1.41e+05  -6.0 2.15e+02    -  2.32e-01 2.74e-01h  1
  18 -4.8151069e+00 3.17e+00 4.38e+04  -6.0 1.30e+02  -2.7 6.86e-02 4.67e-02h  1
  19 -4.8120322e+00 3.17e+00 4.51e+04  -6.0 4.83e+02  -3.1 3.57e-05 1.30e-03h  1
iter    objective    inf_pr   inf_du lg(mu)  ||d||  lg(rg) alpha_du alpha_pr  ls
  20 -4.6747103e+00 1.39e+00 4.89e+05  -6.0 1.61e+02    -  2.48e-06 5.63e-01h  1
  21 -4.6841123e+00 1.18e+00 2.31e+05  -6.0 3.93e+01    -  3.77e-01 1.51e-01h  1
  22 -4.8692481e+00 2.46e+00 2.58e+05  -6.0 2.77e+01    -  3.31e-01 1.00e+00f  1
  23 -5.0567783e+00 4.02e-01 1.31e+05  -6.0 4.84e+01    -  4.08e-01 8.95e-01h  1
  24 -5.1844704e+00 6.17e-01 8.40e+04  -6.0 3.54e+01    -  6.01e-01 7.13e-01f  1
  25 -5.2933552e+00 3.39e-01 2.94e+04  -6.0 4.39e+01    -  6.48e-01 4.70e-01h  1
  26 -5.3079446e+00 3.25e-01 9.55e+04  -6.0 8.97e+01    -  5.14e-01 4.14e-02h  1
  27 -5.4436202e+00 2.74e-01 1.08e+05  -6.0 2.25e+02    -  2.49e-01 1.65e-01h  1
  28 -5.4623974e+00 2.15e-01 7.61e+04  -6.0 5.72e+01    -  5.09e-01 2.12e-01h  1
  29 -5.4982879e+00 2.18e-01 5.20e+04  -6.0 8.47e+01    -  1.45e-01 2.24e-01h  1
iter    objective    inf_pr   inf_du lg(mu)  ||d||  lg(rg) alpha_du alpha_pr  ls
  30 -5.5752717e+00 7.32e-01 3.48e+03  -6.0 9.26e+01    -  3.68e-01 5.69e-01h  1
  31 -5.5752124e+00 7.24e-01 6.92e+05  -6.0 4.23e+01  -3.6 5.77e-02 1.12e-02h  1
  32 -5.5758166e+00 3.00e-01 1.71e+05  -6.0 8.44e+00  -4.1 7.52e-01 6.25e-01f  1
  33 -5.5787600e+00 2.50e-01 5.36e+05  -6.0 1.19e+01  -4.6 7.75e-01 1.88e-01h  1
  34 -5.5837376e+00 4.61e-02 1.83e+03  -6.0 3.88e+00  -4.2 8.82e-01 9.97e-01h  1
  35 -5.5981969e+00 1.61e-01 3.00e+01  -6.0 1.06e+01  -4.6 9.84e-01 1.00e+00h  1
  36 -5.6163216e+00 2.21e-01 3.80e+01  -6.0 2.89e+01  -5.1 9.81e-01 1.00e+00h  1
  37 -5.6419499e+00 1.57e-01 2.89e+01  -6.0 7.01e+01  -5.6 1.00e+00 1.00e+00h  1
  38 -5.6630587e+00 1.12e-01 1.86e+01  -6.0 1.28e+02  -6.1 1.00e+00 4.26e-01h  1
  39 -5.7177150e+00 5.13e-01 1.35e+02  -6.0 1.65e+02  -6.5 1.67e-01 1.00e+00h  1
iter    objective    inf_pr   inf_du lg(mu)  ||d||  lg(rg) alpha_du alpha_pr  ls
  40 -5.7335971e+00 3.45e-01 5.43e+01  -6.0 2.11e+02  -6.1 1.00e+00 6.69e-01h  1
  41 -5.7447581e+00 1.86e-01 1.74e+02  -6.0 1.04e+02  -6.6 8.53e-01 6.14e-01h  1
  42 -5.7941379e+00 1.82e+00 9.54e+04  -6.0 7.78e+02  -7.1 5.00e-01 8.77e-01h  1
  43 -5.8002618e+00 1.69e+00 1.57e+05  -6.0 8.00e+02  -6.6 3.48e-05 6.74e-02h  1
  44 -5.8059483e+00 1.45e+00 2.05e+05  -6.0 2.27e+02  -7.1 3.63e-01 1.55e-01h  1
  45 -5.8501142e+00 2.16e+00 6.07e+04  -6.0 6.14e+02  -7.6 6.73e-01 7.08e-01f  1
  46 -5.8737324e+00 1.95e+00 3.41e+04  -6.0 1.53e+03  -8.1 1.60e-01 4.39e-01h  1
  47 -5.9175549e+00 1.11e+01 4.54e+05  -6.0 2.61e+03  -8.5 1.28e-01 5.54e-01h  1
  48 -5.9068364e+00 2.40e-02 1.75e+05  -6.0 1.23e+01  -5.4 1.66e-01 1.00e+00h  1
  49 -5.9089295e+00 1.68e-02 3.88e+02  -6.0 1.52e+01  -5.9 9.96e-01 1.00e+00h  1
iter    objective    inf_pr   inf_du lg(mu)  ||d||  lg(rg) alpha_du alpha_pr  ls
  50 -5.9119857e+00 6.83e-01 3.71e+02  -6.0 6.50e+04    -  4.45e-03 2.10e-03h  1
  51 -5.9306773e+00 2.14e+00 1.83e+02  -6.0 6.72e+03    -  1.54e-01 1.15e-01h  1
  52 -5.9413642e+00 1.58e+00 1.25e+02  -6.0 8.10e+03    -  1.24e-01 7.36e-02h  1
  53 -5.9775567e+00 5.25e+00 4.66e+02  -6.0 6.27e+03    -  2.71e-01 3.29e-01h  1
  54 -5.9817085e+00 4.68e+00 4.06e+02  -6.0 1.75e+03    -  7.94e-02 1.13e-01h  1
  55 -5.9841093e+00 4.16e+00 1.86e+03  -6.0 1.78e+03    -  8.90e-03 1.30e-01h  1
  56 -5.9788740e+00 5.95e+00 9.75e+02  -6.0 5.97e+02  -6.4 8.61e-03 9.44e-01h  1
  57 -5.9963307e+00 3.14e+00 1.24e+03  -6.0 4.11e+02  -6.8 5.90e-02 1.00e+00h  1
  58 -5.9915367e+00 1.38e+00 1.52e+02  -6.0 2.45e+02  -7.3 2.22e-01 8.75e-01h  1
  59 -5.9919699e+00 1.22e+00 2.87e+05  -6.0 1.77e+02  -5.1 5.85e-05 1.32e-01h  1
iter    objective    inf_pr   inf_du lg(mu)  ||d||  lg(rg) alpha_du alpha_pr  ls
  60 -5.9928593e+00 8.62e-02 9.17e+00  -6.0 3.15e+01  -5.6 1.00e+00 1.00e+00h  1
  61 -5.9937740e+00 3.21e-02 1.43e-01  -6.0 2.53e+01  -6.0 1.00e+00 1.00e+00h  1
  62 -5.9971386e+00 8.21e-02 5.37e-01  -6.0 5.14e+01  -6.5 1.00e+00 1.00e+00h  1
  63 -6.0061240e+00 1.07e+00 4.90e+00  -6.0 1.92e+02  -7.0 1.00e+00 1.00e+00h  1
  64 -6.0087801e+00 1.10e+00 7.51e+01  -6.0 1.35e+03  -7.5 1.81e-01 3.87e-02h  1
  65 -6.0257164e+00 4.29e+00 6.72e+04  -6.0 2.59e+03    -  8.08e-01 4.78e-01h  1
  66 -6.0322138e+00 2.92e+00 9.28e+04  -6.0 5.29e+02    -  5.21e-01 3.55e-01h  1
  67 -6.0448787e+00 1.35e+00 1.21e+05  -6.0 4.84e+02    -  1.00e+00 7.89e-01h  1
  68r-6.0448787e+00 1.35e+00 1.00e+03   0.1 0.00e+00    -  0.00e+00 2.58e-07R  3
  69r-6.0534516e+00 1.35e+00 1.00e+03   0.1 1.89e+04    -  5.99e-06 1.51e-06f  1
iter    objective    inf_pr   inf_du lg(mu)  ||d||  lg(rg) alpha_du alpha_pr  ls
  70 -6.0532171e+00 1.33e+00 8.91e+05  -6.0 1.30e+01    -  5.71e-01 1.85e-02h  1
  71 -6.0529847e+00 1.30e+00 8.00e+05  -6.0 1.45e+01    -  1.85e-02 1.69e-02h  1
  72 -6.0492316e+00 9.26e-01 5.68e+05  -6.0 1.45e+01    -  2.40e-01 2.89e-01h  1
  73 -6.0486549e+00 8.67e-01 5.32e+05  -6.0 1.26e+01    -  3.97e-01 6.34e-02h  1
  74 -6.0476214e+00 7.73e-01 4.74e+05  -6.0 1.40e+01    -  8.01e-01 1.09e-01h  1
  75 -6.0351430e+00 7.67e-01 1.88e+05  -6.0 1.69e+02  -5.2 4.09e-01 6.03e-01h  1
  76 -6.0410981e+00 9.34e-02 2.85e+04  -6.0 2.54e+01    -  5.75e-04 8.49e-01h  1
  77 -6.0367150e+00 2.85e-03 2.43e+01  -6.0 4.92e+00    -  6.47e-01 1.00e+00h  1
  78 -6.0392098e+00 8.85e-03 1.42e+01  -6.0 5.38e+00    -  4.95e-01 1.00e+00h  1
  79 -6.0377479e+00 2.80e-04 2.01e+04  -6.0 8.76e+00    -  9.85e-01 1.00e+00H  1
iter    objective    inf_pr   inf_du lg(mu)  ||d||  lg(rg) alpha_du alpha_pr  ls
  80 -6.0444699e+00 4.69e-01 4.06e+00  -6.0 1.20e+02    -  8.75e-01 1.00e+00h  1
  81 -6.0487167e+00 4.05e-01 3.26e+01  -6.0 3.14e+02    -  8.95e-01 6.30e-01h  1
  82 -6.0466878e+00 5.84e-01 3.02e+03  -6.0 4.93e+02    -  3.75e-01 1.00e+00H  1
  83 -6.0468936e+00 5.30e-01 2.26e+03  -6.0 5.14e+02    -  9.31e-01 1.85e-01h  1
  84 -6.0464110e+00 4.34e-02 1.76e+03  -6.0 4.26e+00  -5.7 6.67e-02 1.00e+00h  1
  85 -6.0465249e+00 5.45e-02 2.55e+00  -6.0 4.33e+00  -6.2 1.00e+00 3.02e-01h  1
  86 -6.0465988e+00 3.90e-02 5.42e+01  -6.0 6.02e+01    -  1.00e+00 3.89e-01f  1
  87 -6.0466886e+00 7.94e-03 8.99e-01  -6.0 3.80e+01    -  1.00e+00 1.00e+00h  1
  88 -6.0466089e+00 2.91e-05 3.10e-02  -6.0 1.15e+00    -  1.00e+00 1.00e+00h  1
  89 -6.0466012e+00 6.72e-06 4.39e-04  -6.0 4.04e-01    -  1.00e+00 1.00e+00h  1
iter    objective    inf_pr   inf_du lg(mu)  ||d||  lg(rg) alpha_du alpha_pr  ls
  90 -6.0466011e+00 4.26e-10 3.27e-08  -6.0 2.59e-03    -  1.00e+00 1.00e+00h  1
  91 -6.0466680e+00 6.56e-04 4.95e+01  -7.5 3.24e+01    -  9.55e-01 7.83e-01h  1
  92 -6.0466730e+00 1.11e-04 7.01e+00  -7.5 7.20e+00    -  1.00e+00 8.88e-01h  1
  93 -6.0466728e+00 5.95e-07 6.42e-03  -7.5 8.02e-01    -  1.00e+00 1.00e+00h  1
  94 -6.0466728e+00 2.85e-10 1.07e-09  -7.5 2.15e-04    -  1.00e+00 1.00e+00h  1
  95 -6.0466744e+00 7.56e-07 7.16e-01  -9.0 1.04e+00    -  9.25e-01 8.47e-01h  1
  96 -6.0466747e+00 2.48e-08 2.61e-04  -9.0 1.59e-01    -  1.00e+00 1.00e+00f  1
  97 -6.0466747e+00 2.83e-10 1.96e-08  -9.0 3.77e-05    -  1.00e+00 1.00e+00h  1
  98 -6.0466747e+00 2.84e-10 1.19e-09  -9.0 6.04e-06    -  1.00e+00 1.00e+00h  1

Number of Iterations....: 98

                                   (scaled)                 (unscaled)
Objective...............:  -4.7239645880298937e+00   -6.0466746726782636e+00
Dual infeasibility......:   1.1855352912730532e-09    1.5174851728295081e-09
Constraint violation....:   2.8441883158543402e-10    2.8441883158543402e-10
Complementarity.........:   9.2871642036575399e-10    1.1887570180681651e-09
Overall NLP error.......:   1.1855352912730532e-09    1.5174851728295081e-09


Number of objective function evaluations             = 145
Number of objective gradient evaluations             = 99
Number of equality constraint evaluations            = 145
Number of inequality constraint evaluations          = 145
Number of equality constraint Jacobian evaluations   = 101
Number of inequality constraint Jacobian evaluations = 101
Number of Lagrangian Hessian evaluations             = 98
Total CPU secs in IPOPT (w/o function evaluations)   =    221.277
Total CPU secs in NLP function evaluations           =      3.687

EXIT: Optimal Solution Found.
